SolutionMethod        diagon

SystemName Bi electrode 
SystemLabel elec_bi


==================================================
==================================================
# SPECIES AND BASIS

# Number of species 
NumberOfSpecies 1
%block ChemicalSpeciesLabel
  1  83 Bi 
%endblock ChemicalSpeciesLabel

PAO.BasisSize    DZP
PAO.EnergyShift  0.005 Ry
XC.functional   GGA
XC.authors      PBE


==================================================
==================================================

# K-points

%block kgrid_Monkhorst_Pack
 20   0     0    0.0
 0    1     0    0.0
 0    0    100  0.0
%endblock kgrid_Monkhorst_Pack



==================================================
==================================================

# Structure
NumberOfAtoms 48
LatticeConstant 1.0 Ang
%block LatticeVectors
  45.3104495999999983    0.0000000000000000    0.0000000000000000
     0.0000000000000000   20.0000000000000000    0.0000000000000000
     0.0000000000000000    0.0000000000000000    8.7200002669999996
%endblock LatticeVectors
AtomicCoordinatesFormat Ang
%block  AtomicCoordinatesAndAtomicSpecies
  2.51601362      11.75619984       0.00000000       1 
  6.29188442      11.75619984       2.18000007       1 
  7.55045795      10.02980042       0.00000000       1 
  3.77458715      10.02980042       2.18000007       1 
  2.51601362      11.75619984       4.36000013       1 
  6.29188442      11.75619984       6.54000020       1 
  7.55045795      10.02980042       4.36000013       1 
  3.77458715      10.02980042       6.54000020       1 
 10.06775522      11.75619984       0.00000000       1 
 13.84362602      11.75619984       2.18000007       1 
 15.10219955      10.02980042       0.00000000       1 
 11.32632875      10.02980042       2.18000007       1 
 10.06775522      11.75619984       4.36000013       1 
 13.84362602      11.75619984       6.54000020       1 
 15.10219955      10.02980042       4.36000013       1 
 11.32632875      10.02980042       6.54000020       1 
 17.61949682      11.75619984       0.00000000       1 
 21.39536762      11.75619984       2.18000007       1 
 22.65394115      10.02980042       0.00000000       1 
 18.87807035      10.02980042       2.18000007       1 
 17.61949682      11.75619984       4.36000013       1 
 21.39536762      11.75619984       6.54000020       1 
 22.65394115      10.02980042       4.36000013       1 
 18.87807035      10.02980042       6.54000020       1 
 25.17123842      11.75619984       0.00000000       1 
 28.94710922      11.75619984       2.18000007       1 
 30.20568275      10.02980042       0.00000000       1 
 26.42981195      10.02980042       2.18000007       1 
 25.17123842      11.75619984       4.36000013       1 
 28.94710922      11.75619984       6.54000020       1 
 30.20568275      10.02980042       4.36000013       1 
 26.42981195      10.02980042       6.54000020       1 
 32.72298002      11.75619984       0.00000000       1 
 36.49885082      11.75619984       2.18000007       1 
 37.75742435      10.02980042       0.00000000       1 
 33.98155355      10.02980042       2.18000007       1 
 32.72298002      11.75619984       4.36000013       1 
 36.49885082      11.75619984       6.54000020       1 
 37.75742435      10.02980042       4.36000013       1 
 33.98155355      10.02980042       6.54000020       1 
 40.27472162      11.75619984       0.00000000       1 
 44.05059242      11.75619984       2.18000007       1 
 45.30916595      10.02980042       0.00000000       1 
 41.53329515      10.02980042       2.18000007       1 
 40.27472162      11.75619984       4.36000013       1 
 44.05059242      11.75619984       6.54000020       1 
 45.30916595      10.02980042       4.36000013       1 
 41.53329515      10.02980042       6.54000020       1 
%endblock  AtomicCoordinatesAndAtomicSpecies

==================================================
==================================================
# SCF variables

DM.MixSCF1   T
MaxSCFIterations      300           # Maximum number of SCF iter
DM.MixingWeight       0.05          # New DM amount for next SCF cycle
DM.Tolerance          1.d-4         # Tolerance in maximum difference
DM.UseSaveDM          .true.          # to use continuation files
DM.NumberPulay        5

==================================================
==================================================
# MD variables

MD.FinalTimeStep 1
MD.TypeOfRun CG
MD.NumCGsteps     000
MD.UseSaveXV      .true.

==================================================
==================================================
# Output variables

WriteMullikenPop                1
WriteBands                      .false.
SaveRho                         .false.
SaveDeltaRho                    .false.
SaveHS                          .true.
SaveElectrostaticPotential      .true. 
SaveTotalPotential              .true.
WriteCoorXmol                   .true.
WriteMDXmol                     .true.
WriteMDhistory                  .false.
WriteEigenvalues                .true.
XML.Write              	        .true.
==================================================
==================================================
#Other options

TS.HS.Save .true.
TS.DE.Save .true.
ParallelOverK .true.
User.Basis .true.
==================================================
==================================================


