SolutionMethod        Transiesta
SystemLabel       w2c_scat

User.basis T
NumberOfAtoms    120
NumberOfSpecies  2

 %block ChemicalSpeciesLabel
    1      74      W
    2       6      C
 %endblock ChemicalSpeciesLabel


LatticeConstant 1.0 Ang

%block LatticeVectors
    11.3715600969999997    0.0000000000000000    0.0000000000000000
     0.0000000000000000   24.0000000000000000    0.0000000000000000
     0.0000000000000000    0.0000000000000000   24.6201515200000003
%endblock LatticeVectors


%block kgrid_Monkhorst_Pack
 10    0   0   0.0
 0     1   0   0.0
 0     0   1   0.0
%endblock kgrid_Monkhorst_Pack

AtomicCoordinatesFormat Ang
AtomCoorFormatOut       Ang 
#%block GeometryConstraints
#position from 1 to 12
#position from -1 to -12
#cellside a b c
#cellangle alpha beta gamma
#%endblock GeometryConstraints

%block AtomicCoordinatesAndAtomicSpecies
       1.42144501       8.61676788       4.10335827    1   74 
       0.00000000       8.61676788       1.64134335    1   74 
       1.42144501      11.38323211       4.10335827    1   74 
       0.00000000      11.38323211       1.64134335    1   74 
       4.26433504       8.61676788       4.10335827    1   74 
       2.84289002       8.61676788       1.64134335    1   74 
       4.26433504      11.38323211       4.10335827    1   74 
       2.84289002      11.38323211       1.64134335    1   74 
       7.10722506       8.61676788       4.10335827    1   74 
       5.68578005       8.61676788       1.64134335    1   74 
       7.10722506      11.38323211       4.10335827    1   74 
       5.68578005      11.38323211       1.64134335    1   74 
       9.95011508       8.61676788       4.10335827    1   74 
       8.52867007       8.61676788       1.64134335    1   74 
       9.95011508      11.38323211       4.10335827    1   74 
       8.52867007      11.38323211       1.64134335    1   74 
       1.42144489      10.00000001       0.82067168    2    6 
       0.00000000      10.00000001       3.28268671    2    6 
       4.26433492      10.00000001       0.82067168    2    6 
       2.84289002      10.00000001       3.28268671    2    6 
       7.10722494      10.00000001       0.82067168    2    6 
       5.68578005      10.00000001       3.28268671    2    6 
       9.95011497      10.00000001       0.82067168    2    6 
       8.52867007      10.00000001       3.28268671    2    6 
       1.42144501       8.61676788       9.02738857    1   74 
       0.00000000       8.61676788       6.56537365    1   74 
       1.42144501      11.38323211       9.02738857    1   74 
       0.00000000      11.38323211       6.56537365    1   74 
       4.26433504       8.61676788       9.02738857    1   74 
       2.84289002       8.61676788       6.56537365    1   74 
       4.26433504      11.38323211       9.02738857    1   74 
       2.84289002      11.38323211       6.56537365    1   74 
       7.10722506       8.61676788       9.02738857    1   74 
       5.68578005       8.61676788       6.56537365    1   74 
       7.10722506      11.38323211       9.02738857    1   74 
       5.68578005      11.38323211       6.56537365    1   74 
       9.95011508       8.61676788       9.02738857    1   74 
       8.52867007       8.61676788       6.56537365    1   74 
       9.95011508      11.38323211       9.02738857    1   74 
       8.52867007      11.38323211       6.56537365    1   74 
       1.42144489      10.00000001       5.74470198    2    6 
       0.00000000      10.00000001       8.20671701    2    6 
       4.26433492      10.00000001       5.74470198    2    6 
       2.84289002      10.00000001       8.20671701    2    6 
       7.10722494      10.00000001       5.74470198    2    6 
       5.68578005      10.00000001       8.20671701    2    6 
       9.95011497      10.00000001       5.74470198    2    6 
       8.52867007      10.00000001       8.20671701    2    6 
       1.42144501       8.61676788      13.95141888    1   74 
       0.00000000       8.61676788      11.48940396    1   74 
       1.42144501      11.38323211      13.95141888    1   74 
       0.00000000      11.38323211      11.48940396    1   74 
       4.26433504       8.61676788      13.95141888    1   74 
       2.84289002       8.61676788      11.48940396    1   74 
       4.26433504      11.38323211      13.95141888    1   74 
       2.84289002      11.38323211      11.48940396    1   74 
       7.10722506       8.61676788      13.95141888    1   74 
       5.68578005       8.61676788      11.48940396    1   74 
       7.10722506      11.38323211      13.95141888    1   74 
       5.68578005      11.38323211      11.48940396    1   74 
       9.95011508       8.61676788      13.95141888    1   74 
       8.52867007       8.61676788      11.48940396    1   74 
       9.95011508      11.38323211      13.95141888    1   74 
       8.52867007      11.38323211      11.48940396    1   74 
       1.42144489      10.00000001      10.66873229    2    6 
       0.00000000      10.00000001      13.13074732    2    6 
       4.26433492      10.00000001      10.66873229    2    6 
       2.84289002      10.00000001      13.13074732    2    6 
       7.10722494      10.00000001      10.66873229    2    6 
       5.68578005      10.00000001      13.13074732    2    6 
       9.95011497      10.00000001      10.66873229    2    6 
       8.52867007      10.00000001      13.13074732    2    6 
       1.42144501       8.61676788      18.87544918    1   74 
       0.00000000       8.61676788      16.41343426    1   74 
       1.42144501      11.38323211      18.87544918    1   74 
       0.00000000      11.38323211      16.41343426    1   74 
       4.26433504       8.61676788      18.87544918    1   74 
       2.84289002       8.61676788      16.41343426    1   74 
       4.26433504      11.38323211      18.87544918    1   74 
       2.84289002      11.38323211      16.41343426    1   74 
       7.10722506       8.61676788      18.87544918    1   74 
       5.68578005       8.61676788      16.41343426    1   74 
       7.10722506      11.38323211      18.87544918    1   74 
       5.68578005      11.38323211      16.41343426    1   74 
       9.95011508       8.61676788      18.87544918    1   74 
       8.52867007       8.61676788      16.41343426    1   74 
       9.95011508      11.38323211      18.87544918    1   74 
       8.52867007      11.38323211      16.41343426    1   74 
       1.42144489      10.00000001      15.59276259    2    6 
       0.00000000      10.00000001      18.05477762    2    6 
       4.26433492      10.00000001      15.59276259    2    6 
       2.84289002      10.00000001      18.05477762    2    6 
       7.10722494      10.00000001      15.59276259    2    6 
       5.68578005      10.00000001      18.05477762    2    6 
       9.95011497      10.00000001      15.59276259    2    6 
       8.52867007      10.00000001      18.05477762    2    6 
       1.42144501       8.61676788      23.79947949    1   74 
       0.00000000       8.61676788      21.33746457    1   74 
       1.42144501      11.38323211      23.79947949    1   74 
       0.00000000      11.38323211      21.33746457    1   74 
       4.26433504       8.61676788      23.79947949    1   74 
       2.84289002       8.61676788      21.33746457    1   74 
       4.26433504      11.38323211      23.79947949    1   74 
       2.84289002      11.38323211      21.33746457    1   74 
       7.10722506       8.61676788      23.79947949    1   74 
       5.68578005       8.61676788      21.33746457    1   74 
       7.10722506      11.38323211      23.79947949    1   74 
       5.68578005      11.38323211      21.33746457    1   74 
       9.95011508       8.61676788      23.79947949    1   74 
       8.52867007       8.61676788      21.33746457    1   74 
       9.95011508      11.38323211      23.79947949    1   74 
       8.52867007      11.38323211      21.33746457    1   74 
       1.42144489      10.00000001      20.51679290    2    6 
       0.00000000      10.00000001      22.97880792    2    6 
       4.26433492      10.00000001      20.51679290    2    6 
       2.84289002      10.00000001      22.97880792    2    6 
       7.10722494      10.00000001      20.51679290    2    6 
       5.68578005      10.00000001      22.97880792    2    6 
       9.95011497      10.00000001      20.51679290    2    6 
       8.52867007      10.00000001      22.97880792    2    6 
%endblock AtomicCoordinatesAndAtomicSpecies


 %block kgrid_Monkhorst_Pack
  10   0   0    0.000000
   0   1   0    0.000000
   0   0 100    0.000000
 %endblock kgrid_Monkhorst_Pack
 
DM.MixSCF1   T
MaxSCFIterations      2000           # Maximum number of SCF iter
DM.MixingWeight       0.05          # New DM amount for next SCF cycle
DM.Tolerance          1.d-4         # Tolerance in maximum difference
DM.UseSaveDM          true          # to use continuation files
DM.NumberPulay        5
TS.MixH               yes

# MD variables

MD.FinalTimeStep 1
MD.TypeOfRun CG
MD.NumCGsteps     000
MD.UseSaveXV      .true.

# Output variables

WriteMullikenPop                1
WriteBands                      .false.
SaveRho                         .false.
SaveDeltaRho                    .false.
SaveHS                          .false.
SaveElectrostaticPotential      True 
SaveTotalPotential              no
WriteCoorXmol                   .true.
WriteMDXmol                     .true.
WriteMDhistory                  .false.
WriteEigenvalues                yes


TS.Voltage    0.0 eV
 
%block TS.ChemPots
  Left
  Right
%endblock TS.ChemPots
 
%block TS.ChemPot.Left
  mu V/2
  contour.eq
    begin
      c-Left
      t-Left
    end
%endblock TS.ChemPot.Left
%block TS.ChemPot.Right
  mu -V/2
  contour.eq
    begin
      c-Right
      t-Right
    end
%endblock TS.ChemPot.Right
 
TS.Elecs.Bulk true
TS.Elecs.DM.Update none
TS.Elecs.GF.ReUse false
%block TS.Elecs
  Left
  Right
%endblock TS.Elecs
 
%block TS.Elec.Left
  HS ./electrode.TSHS
  chem-pot Left
  semi-inf-dir -a3
  elec-pos begin 1
  used-atoms 24
%endblock TS.Elec.Left
 
%block TS.Elec.Right
  HS ./electrode.TSHS
  chem-pot Right
  semi-inf-dir +a3
  elec-pos end -1
  used-atoms 24
%endblock TS.Elec.Right
 
TS.Contours.Eq.Pole    2.50000 eV
%block TS.Contour.c-Left
  part circle
   from  -40.00000 eV + V/2 to -10. kT + V/2
    points 30
     method g-legendre
%endblock TS.Contour.c-Left
%block TS.Contour.t-Left
  part tail
   from prev to inf
    points 10
     method g-fermi
%endblock TS.Contour.t-Left
%block TS.Contour.c-Right
  part circle
   from  -40.00000 eV - V/2 to -10. kT - V/2
    points 30
     method g-legendre
%endblock TS.Contour.c-Right
%block TS.Contour.t-Right
  part tail
   from prev to inf
    points 10
     method g-fermi
%endblock TS.Contour.t-Right
 
TS.Elecs.Eta    0.0001000000 eV
%block TS.Contours.nEq
  neq
%endblock TS.Contours.nEq
%block TS.Contour.nEq.neq
  part line
   from -|V|/2 - 5 kT to |V|/2 + 5 kT
    delta 0.01 eV
     method mid-rule
%endblock TS.Contour.nEq.neq
 
 
# TBtrans options
 
TBT.T.Eig 5
TBT.Elecs.Eta    0.0000136058 eV
 
%block TBT.Contours
  neq
%endblock TBT.Contours
 
%block TBT.Contour.neq
  part line
   from   -2.00000 eV to    2.00000 eV
    delta    0.00500 eV
     method mid-rule
%endblock TBT.Contour.neq





